
%FILE DATA:	Soccer Computational Problem for MiniZinc Models	%
%AUTHOR:	Jack Wall	%
%CONTACT:  	116397063@umail.ucc.ie			%
%LAST UPDATE:	03/02/2020, 19:05:34						%
%DESCRIPTION: 	84 games played with 48 games left				%


n=12; %number of teams

%Games to play
games=[|1,6|6,4|2,10|12,9|11,6|6,12|2,3|8,9|5,8|9,8|9,2|11,9|8,4|4,6|12,3|3,5|4,11|9,5|3,1|12,10|6,11|4,12|11,10|5,2|2,11|5,11|9,4|10,12|7,9|10,4|1,9|5,6|12,2|11,1|2,6|4,8|12,4|11,5|10,7|9,11|2,5|3,2|10,3|3,6|9,3|8,5|7,12|4,9|];

%Initial points
iPoints=[33,18,14,6,23,27,26,18,11,22,17,15];

%POSITION CONSTRAINTS
% [|teamID, operator, position|...]
% operators index:
%  1 for =  operator
%  2 for >  operator
%  3 for >= operator
%  4 for <  operator
%  5 for <= operator
positionConstraints=[|1,3,1|6,5,2|2,5,3|];